130 
300 
-0.5 0 0 0
0.5 0 0 -135
-7 -7 -35 -74
-7 -5 35 -12
-7 -3 35 -29
-7 -1 35 -27
-7 1 35 -29
-7 3 35 -28
-7 5 35 -10
-7 7 -35 -73
-5 -7 -35 -132
-5 -5 25 -10
-5 -3 25 -16
-5 -1 -25 -105
-5 1 25 -23
-5 3 25 -11
-5 5 -25 -96
-5 7 35 -24
-3 -7 35 -22
-3 -5 25 -29
-3 -3 -15 -120
-3 -1 15 -28
-3 1 -15 -116
-3 3 -15 -84
-3 5 25 -25
-3 7 -35 -98
-1 -7 35 -17
-1 -5 25 -18
-1 -3 -15 -63
-1 -1 -5 -96
-1 1 -5 -83
-1 3 -15 -125
-1 5 25 -25
-1 7 35 -12
1 -7 -35 -116
1 -5 25 -13
1 -3 -15 -69
1 -1 -5 -77
1 1 -5 -125
1 3 15 -26
1 5 25 -21
1 7 35 -16
3 -7 35 -21
3 -5 -25 -98
3 -3 15 -28
3 -1 -15 -60
3 1 -15 -73
3 3 15 -18
3 5 -25 -70
3 7 -35 -72
5 -7 35 -15
5 -5 25 -26
5 -3 -25 -122
5 -1 25 -11
5 1 -25 -64
5 3 -25 -94
5 5 25 -27
5 7 -35 -102
7 -7 35 -27
7 -5 35 -14
7 -3 35 -19
7 -1 -35 -76
7 1 -35 -69
7 3 35 -19
7 5 -35 -86
7 7 35 -22
